File "./GRP655-14/SMT.v", line 6, characters 0-26:
Warning: Interpreting this declaration as if a global declaration prefixed by
"Local", i.e. as a global declaration which shall not be available without
qualification when imported. [local-declaration,vernacular,default]
File "./GRP655-14/SMT.v", line 7, characters 0-28:
Warning: Interpreting this declaration as if a global declaration prefixed by
"Local", i.e. as a global declaration which shall not be available without
qualification when imported. [local-declaration,vernacular,default]
File "./GRP655-14/SMT.v", line 8, characters 0-26:
Warning: Interpreting this declaration as if a global declaration prefixed by
"Local", i.e. as a global declaration which shall not be available without
qualification when imported. [local-declaration,vernacular,default]
File "./GRP655-14/SMT.v", line 9, characters 0-16:
Warning: Interpreting this declaration as if a global declaration prefixed by
"Local", i.e. as a global declaration which shall not be available without
qualification when imported. [local-declaration,vernacular,default]
File "./GRP655-14/SMT.v", line 10, characters 0-16:
Warning: Interpreting this declaration as if a global declaration prefixed by
"Local", i.e. as a global declaration which shall not be available without
qualification when imported. [local-declaration,vernacular,default]
veriT --proof-prune --proof-merge --proof-with-sharing --cnf-definitional --disable-ackermann --input=smtlib2 --proof=/tmp/verit_coq1c25b0.vtlog /tmp/verit_coq1c25b0.smt2 2> /tmp/warnings_verit944133.log
veriT dev - the SMT-solver veriT (UFRN/LORIA).
success
success
success
success
success
success
success
success
success
success
success
success
unknown
success
success
Verit = 0.00008
(set-option :print-success true)
(set-option :produce-assignments true)
(set-option :produce-proofs true)
(set-logic QF_UFLIA)
(declare-fun op_3 (Int Int ) Int)
(declare-fun op_0 () Int)
(declare-fun op_1 (Int Int ) Int)
(declare-fun op_2 () Int)
(assert (not (= (op_3 (op_1 op_0 op_0) op_2) op_2)))
(check-sat)
(get-model)
File "./GRP655-14/SMT.v", line 22, characters 2-5:
Error:
CVC4 returned sat. Here is the model:

x1 := 0
ld := fun _ _ => -1
x0 := 1
mult := fun _ _ => 2

